000 000 000 000 -99 000 000 000 -99 -99 -99 -99 -99 000 000 -99 -99 000 000 000 -99 000 000 000 000 -99 -99 -99 -99 -99 -99
000 000 000 000 000 000 000 000 -99 -99 -99 -99 -99 000 000 -99 000 000 -99 -99 -99 000 000 000 000 000 -99 000 -99 -99 -99
-99 000 000 000 000 000 000 000 000 -99 -99 -99 -99 -99 000 -99 000 000 -99 -99 -99 -99 000 000 000 000 000 000 000 -99 -99
000 000 000 000 000 000 000 000 000 -99 -99 -99 -99 -99 -99 -99 -99 -99 -99 -99 000 000 000 000 000 -99 000 000 -99 -99 -99
000 000 000 000 000 000 000 000 000 -99 -99 -99 -99 -99 -99 -99 -99 -99 -99 -99 000 000 000 000 000 000 -99 -99 -99 -99 000
000 000 000 000 000 000 000 000 000 000 -99 -99 -99 -99 -99 -99 -99 -99 -99 -99 000 000 000 000 000 -99 -99 -99 -99 -99 000
000 000 000 000 000 000 000 000 000 000 -99 -99 -99 -99 -99 -99 000 -99 -99 -99 000 000 000 000 000 000 -99 -99 -99 -99 -99
000 000 000 000 000 000 000 000 000 000 000 -99 -99 -99 -99 -99 000 000 -99 -99 -99 000 000 -99 000 000 -99 -99 -99 -99 -99
000 000 000 000 000 000 000 -99 000 000 000 000 -99 -99 -99 -99 -99 000 -99 000 000 000 000 -99 000 000 000 000 -99 -99 -99
000 000 000 000 000 000 000 -99 000 000 000 000 -99 -99 -99 -99 -99 000 000 000 000 000 -99 -99 000 -99 000 000 000 000 -99
000 000 000 000 000 000 000 -99 000 000 000 000 -99 -99 -99 -99 -99 000 000 000 000 000 -99 -99 -99 -99 000 000 000 000 000
000 000 000 000 000 000 000 000 000 000 000 000 -99 -99 -99 -99 -99 000 000 000 000 000 -99 000 000 -99 -99 000 000 000 000
000 000 000 000 000 000 000 -99 000 000 000 000 -99 -99 -99 -99 -99 000 000 000 000 000 -99 -99 000 000 -99 000 000 000 000
000 000 000 000 000 000 000 000 -99 000 000 000 -99 -99 -99 -99 000 000 000 000 000 -99 -99 000 000 000 000 000 000 -99 000
000 000 000 000 000 000 000 000 -99 -99 -99 000 000 -99 -99 000 000 000 000 -99 -99 -99 -99 000 000 000 000 000 000 -99 -99
000 000 -99 -99 000 000 000 000 000 -99 -99 -99 -99 -99 -99 -99 -99 000 000 -99 -99 -99 -99 000 000 000 000 000 000 000 000
000 000 -99 -99 000 000 000 000 000 -99 -99 -99 -99 000 -99 -99 -99 000 000 -99 -99 -99 -99 -99 000 000 000 000 000 000 000
000 000 000 -99 -99 000 000 000 000 -99 -99 -99 -99 -99 -99 -99 000 000 -99 -99 -99 -99 -99 -99 000 000 -99 -99 000 000 001
000 000 000 -99 -99 -99 -99 000 000 -99 -99 -99 -99 -99 -99 000 000 000 -99 -99 000 000 000 -99 000 000 -99 -99 000 000 004
000 000 000 000 -99 -99 -99 000 000 000 -99 -99 -99 -99 -99 000 000 000 -99 -99 000 000 000 -99 -99 -99 -99 -99 -99 000 010
000 000 000 000 000 000 -99 000 000 000 -99 000 000 000 000 000 000 000 -99 -99 000 000 000 -99 -99 -99 -99 -99 -99 002 -99
000 000 000 000 000 000 -99 -99 000 000 000 000 000 000 000 000 001 000 000 000 000 000 000 -99 -99 -99 -99 -99 -99 002 -99
000 000 000 000 000 000 000 000 000 000 000 000 000 000 000 000 000 000 000 000 000 000 000 -99 -99 -99 -99 -99 -99 -99 -99
000 000 000 000 000 000 000 000 000 000 002 006 006 002 000 000 000 000 000 000 000 000 000 -99 -99 -99 -99 -99 -99 -99 -99
000 000 000 000 000 000 000 001 002 002 007 014 008 004 000 000 002 000 000 000 000 000 000 -99 -99 -99 -99 -99 -99 -99 -99
000 000 000 000 000 000 003 015 012 016 024 020 017 007 001 002 004 000 000 000 000 000 000 -99 -99 -99 -99 -99 -99 -99 000
000 000 000 000 001 003 006 031 018 012 015 011 012 031 006 002 002 000 000 000 000 000 000 -99 -99 -99 -99 -99 -99 -99 000
000 000 000 002 004 004 011 039 021 010 007 009 023 026 010 002 000 000 000 000 000 000 000 -99 -99 -99 -99 -99 -99 -99 000
000 000 002 003 011 011 011 026 021 013 010 013 029 022 010 004 000 000 000 000 000 000 -99 -99 -99 -99 -99 -99 -99 -99 000
001 001 001 002 010 009 009 009 015 013 011 017 024 026 018 008 001 000 000 000 000 000 -99 -99 -99 -99 -99 -99 -99 -99 000
001 001 001 003 006 004 006 006 016 018 013 014 010 007 015 017 002 000 000 000 000 000 -99 -99 -99 000 000 -99 -99 -99 000
000 000 000 001 002 006 005 005 011 009 017 009 019 006 017 008 001 000 000 000 000 001 -99 000 000 000 000 -99 -99 -99 000
001 000 000 001 001 003 003 006 010 010 013 006 007 010 005 005 000 000 000 000 000 001 000 000 000 000 000 000 -99 001 000
003 001 000 001 003 004 004 009 015 015 007 004 004 004 002 002 000 000 000 000 000 001 000 000 000 000 000 000 002 001 000
004 001 001 002 005 007 014 012 010 009 007 006 003 003 002 001 000 000 000 000 000 000 000 000 000 000 000 001 002 001 001
005 002 002 003 009 009 021 014 006 006 007 004 003 004 003 002 003 002 000 000 000 000 000 000 000 000 000 003 003 003 005
005 002 001 011 017 020 016 011 004 012 016 003 004 004 003 003 003 002 000 000 000 000 000 000 000 000 000 002 006 007 008
003 002 003 009 014 015 012 008 011 018 008 004 003 003 003 005 005 002 000 000 000 000 000 000 000 000 000 001 003 010 007
002 004 003 003 015 013 006 005 015 021 009 004 003 003 003 004 002 002 000 -99 000 000 000 000 000 000 000 001 006 021 010
006 010 003 005 006 008 006 005 015 024 017 017 004 002 002 003 002 002 000 -99 000 000 000 000 000 000 000 000 009 025 007
014 012 002 001 001 011 010 004 012 016 033 042 005 003 002 003 002 000 000 000 000 000 000 000 000 000 000 000 007 011 002
016 007 001 002 006 009 006 007 021 016 015 022 006 005 002 001 000 000 000 000 000 000 000 000 000 000 -99 001 001 002 002
006 005 003 007 006 006 006 012 018 012 008 026 013 002 001 000 000 000 000 000 000 000 000 000 000 000 -99 -99 001 000 -99
003 003 005 014 004 009 006 006 025 022 004 010 015 002 001 000 000 000 000 000 000 001 000 000 000 000 -99 -99 000 000 -99
002 005 014 008 005 003 002 004 013 009 003 002 001 000 000 000 000 -99 000 -99 -99 000 001 000 000 -99 -99 -99 -99 -99 -99
002 009 011 008 002 001 001 001 010 003 005 002 000 000 000 000 000 000 000 -99 000 -99 000 000 000 -99 -99 -99 -99 -99 000
001 002 005 007 001 001 002 001 002 001 005 001 000 000 -99 -99 -99 000 -99 000 000 -99 000 000 000 000 -99 -99 -99 -99 -99
000 002 003 005 001 003 001 000 000 001 001 000 000 000 000 -99 -99 -99 -99 000 000 000 000 000 000 000 -99 -99 000 -99 -99
001 000 004 005 001 004 002 000 000 001 000 000 001 000 000 -99 -99 -99 -99 000 -99 000 000 -99 -99 -99 -99 000 000 -99 -99
000 000 007 004 001 001 000 000 001 003 000 002 002 000 000 -99 -99 -99 000 000 -99 000 -99 -99 -99 -99 -99 000 -99 -99 -99
000 001 005 000 000 000 000 000 013 009 002 001 003 000 000 -99 -99 -99 000 000 -99 000 -99 -99 -99 -99 000 -99 -99 -99 -99
000 001 000 000 000 -99 000 002 010 005 001 003 004 000 -99 -99 -99 000 000 -99 -99 -99 -99 -99 -99 -99 -99 -99 -99 -99 -99
001 000 000 000 000 -99 000 001 001 000 000 002 003 000 -99 -99 -99 000 000 000 -99 -99 -99 -99 -99 -99 -99 -99 -99 -99 -99
002 001 000 000 -99 -99 000 000 000 000 000 002 000 000 -99 -99 000 000 000 -99 -99 -99 -99 -99 -99 -99 -99 -99 -99 -99 -99
005 003 001 000 000 -99 -99 000 000 000 000 000 -99 -99 -99 -99 000 000 000 -99 -99 -99 -99 -99 -99 -99 -99 -99 -99 -99 -99
